problems/csplib-prob015/SchursLemma-models/noch/O2/lingeling/model_1_4-5-10-solution000001.solution
language Essence 1.3

letting boxes be partition({1, 5, 8}, {2, 3, 6, 7}, {4}, {9}, {10})
